&CONTROL
calculation = 'vc-relax'
forc_conv_thr = 0.00038
nstep = 200
outdir = './output/'
prefix = 'VLAB'
pseudo_dir = './'
restart_mode = 'from_scratch'
verbosity = 'high'
wf_collect = .TRUE.
/

&SYSTEM
degauss = 0.002
ecutrho = 180
ecutwfc = 30
ibrav = 0
nat = 24
ntyp = 3
occupations = 'smearing'
/

&ELECTRONS
conv_thr = 1e-06
electron_maxstep = 200
mixing_beta = 0.5
mixing_mode = 'plain'
scf_must_converge = .TRUE.
startingwfc = 'random'
/

&IONS
ion_dynamics = 'bfgs'
upscale = 100
/

&CELL
cell_dofree = 'all'
cell_dynamics = 'bfgs'
cell_factor = 2
press_conv_thr = 0.2
/

ATOMIC_SPECIES
P 30.973762 P.pbe-n-rrkjus_psl.1.0.0.UPF
Fe 55.845 Fe.pbe-spn-kjpaw_psl.0.2.1.UPF
O 15.9994 O.pbe-n-kjpaw_psl.0.1.UPF

K_POINTS {automatic}
3 5 6 0 0 0

CELL_PARAMETERS {angstrom}
9.9762495000 0.0000000000 0.0000000000
0.0000000000 5.9072383800 0.0000000000
0.0000000000 0.0000000000 4.8864121200

ATOMIC_POSITIONS {angstrom}
Fe 2.24385803754 4.430428785 2.2310527049859603
Fe 7.73239146246 1.476809595 2.6553594150140403
Fe 2.74426671246 1.476809595 4.67425876498596
Fe 7.23198278754 4.430428785 0.2121533550140399
P 0.961131829329 1.476809595 1.9833262697383203
P 9.015117670671 4.430428785 2.90308585026168
P 4.026992920671 4.430428785 4.42653232973832
P 5.949256579329 1.476809595 0.4598797902616799
O 1.6888493491065 0.27699631487658 1.257640319385
O 8.2874001508935 5.6302420651234195 3.628771800615
O 3.2992754008935004 5.6302420651234195 3.700846379385
O 6.676974099106499 0.27699631487658 1.185565740615
O 6.676974099106499 2.67662287512342 1.185565740615
O 3.2992754008935004 3.23061550487658 3.700846379385
O 8.2874001508935 3.23061550487658 3.628771800615
O 1.6888493491065 2.67662287512342 1.257640319385
O 0.541610585355 4.430428785 3.17549355312744
O 9.434638914645001 1.476809595 1.7109185668725597
O 4.4465141646449995 1.476809595 0.7322874931274408
O 5.529735335354999 4.430428785 4.15412462687256
O 1.226001253554 1.476809595 3.48585890534136
O 8.750248246446 4.430428785 1.4005532146586404
O 3.7621234964459997 4.430428785 1.0426528453413604
O 6.214126003554 1.476809595 3.84375927465864
