&CONTROL
calculation = 'vc-relax'
nstep = 100
outdir = './output/'
prefix = 'VLAB'
pseudo_dir = './'
restart_mode = 'from_scratch'
wf_collect = .TRUE.
/

&SYSTEM
degauss = 0.002
ecutwfc = 30
ibrav = 0
nat = 28
ntyp = 4
occupations = 'smearing'
/

&ELECTRONS
electron_maxstep = 100
mixing_beta = 0.5
scf_must_converge = .FALSE.
/

&IONS
ion_dynamics = 'bfgs'
upscale = 10
/

&CELL
cell_dofree = 'all'
cell_dynamics = 'bfgs'
/

ATOMIC_SPECIES
P 30.973762 P.pbe-n-rrkjus_psl.1.0.0.UPF
Fe 55.845 Fe.pbe-spn-kjpaw_psl.0.2.1.UPF
O 15.9994 O.pbe-n-kjpaw_psl.0.1.UPF
Li 6.941 li_pbe_v1.4.uspp.F.UPF

K_POINTS {automatic}
1 1 1 0 0 0

CELL_PARAMETERS {angstrom}
10.4529876600 0.0000000000 0.0000000000
0.0000000000 6.0864949200 0.0000000000
0.0000000000 0.0000000000 4.7534370000

ATOMIC_POSITIONS {angstrom}
Li 0 0 0
Li 5.22649383 0 2.3767185
Li 5.22649383 3.04324746 2.3767185
Li 0 3.04324746 0
Fe 2.28404052163596 4.56487119 2.262797628858
Fe 8.16894713836404 1.52162373 2.4906393711419996
Fe 2.94245330836404 1.52162373 4.639516128858
Fe 7.510534351635959 4.56487119 0.1139208711419999
P 0.98956343579688 1.52162373 1.990948566828
P 9.46342422420312 4.56487119 2.762488433172
P 4.23693039420312 4.56487119 4.367667066828
P 6.21605726579688 1.52162373 0.385769933172
O 1.73194507239774 0.28663130526756 1.360167476928
O 8.72104258760226 5.799863614732439 3.393269523072
O 3.49454875760226 5.799863614732439 3.736885976928
O 6.95843890239774 0.28663130526756 1.0165510230719998
O 6.95843890239774 2.75661615473244 1.0165510230719998
O 3.49454875760226 3.3298787652675603 3.736885976928
O 8.72104258760226 3.3298787652675603 3.393269523072
O 1.73194507239774 2.75661615473244 1.360167476928
O 0.44645755594626 4.56487119 3.3587167895189998
O 10.00653010405374 1.52162373 1.3947202104810001
O 4.78003627405374 1.52162373 0.9819982895189993
O 5.672951385946259 4.56487119 3.771438710481
O 1.0089223689431999 1.52162373 3.528576107277
O 9.4440652910568 4.56487119 1.224860892723
O 4.2175714610568 4.56487119 1.151857607277
O 6.2354161989431995 1.52162373 3.601579392723
